(set-info :smt-lib-version 2.6)
(set-logic QF_UFLRA)
(set-info :source |
MathSat group

|)
(set-info :category "random")
(set-info :status unsat)
(declare-fun x0 () Real)
(declare-fun x1 () Real)
(declare-fun x2 () Real)
(declare-fun x3 () Real)
(declare-fun x4 () Real)
(declare-fun x5 () Real)
(declare-fun x6 () Real)
(declare-fun x7 () Real)
(declare-fun x8 () Real)
(declare-fun x9 () Real)
(declare-fun x10 () Real)
(declare-fun x11 () Real)
(declare-fun x12 () Real)
(declare-fun x13 () Real)
(declare-fun x14 () Real)
(declare-fun x15 () Real)
(declare-fun x16 () Real)
(declare-fun x17 () Real)
(declare-fun x18 () Real)
(declare-fun x19 () Real)
(declare-fun x20 () Real)
(declare-fun x21 () Real)
(declare-fun x22 () Real)
(declare-fun x23 () Real)
(declare-fun x24 () Real)
(declare-fun x25 () Real)
(declare-fun x26 () Real)
(declare-fun x27 () Real)
(declare-fun x28 () Real)
(declare-fun x29 () Real)
(declare-fun f0_1 (Real) Real)
(declare-fun f0_2 (Real Real) Real)
(declare-fun f0_3 (Real Real Real) Real)
(declare-fun f0_4 (Real Real Real Real) Real)
(declare-fun P0 () Bool)
(declare-fun P1 () Bool)
(declare-fun P2 () Bool)
(declare-fun P3 () Bool)
(declare-fun P4 () Bool)
(declare-fun P5 () Bool)
(declare-fun P6 () Bool)
(declare-fun P7 () Bool)
(declare-fun P8 () Bool)
(declare-fun P9 () Bool)
(declare-fun P10 () Bool)
(declare-fun P11 () Bool)
(declare-fun P12 () Bool)
(declare-fun P13 () Bool)
(declare-fun P14 () Bool)
(declare-fun P15 () Bool)
(declare-fun P16 () Bool)
(declare-fun P17 () Bool)
(declare-fun P18 () Bool)
(declare-fun P19 () Bool)
(declare-fun P20 () Bool)
(declare-fun P21 () Bool)
(declare-fun P22 () Bool)
(declare-fun P23 () Bool)
(declare-fun P24 () Bool)
(declare-fun P25 () Bool)
(declare-fun P26 () Bool)
(declare-fun P27 () Bool)
(declare-fun P28 () Bool)
(declare-fun P29 () Bool)
(assert (let ((?v_27 (* 38 x18)) (?v_97 (<= (- (+ (* 7 x26) (* 26 x3)) (* 4 x16)) 28)) (?v_0 (<= (- (- (* 36 x1) (* 21 x8)) (* 8 x22)) 9)) (?v_12 (< (+ (- (* 28 x10) (* 6 x28)) (* 4 x21)) 24)) (?v_54 (f0_1 x10)) (?v_28 (f0_1 x24))) (let ((?v_130 (distinct ?v_54 ?v_28)) (?v_1 (f0_1 x17))) (let ((?v_8 (distinct x9 ?v_1)) (?v_86 (= (f0_1 x21) x2)) (?v_134 (distinct x5 (f0_2 x15 x18))) (?v_116 (distinct (f0_2 x6 x11) (f0_2 x0 x27))) (?v_30 (= (f0_2 x1 x22) (f0_1 x11))) (?v_45 (distinct x23 (f0_1 x0))) (?v_6 (f0_1 x8))) (let ((?v_69 (distinct (f0_2 x4 x28) ?v_6)) (?v_2 (f0_1 x1))) (let ((?v_82 (= ?v_2 x9)) (?v_67 (= (f0_2 x8 x21) ?v_2)) (?v_14 (= x6 x3)) (?v_5 (= ?v_2 (f0_1 x20))) (?v_41 (= (f0_2 x25 x19) x2)) (?v_4 (f0_1 x28))) (let ((?v_15 (distinct (f0_2 x13 x19) ?v_4)) (?v_51 (= ?v_6 (f0_1 x23))) (?v_70 (distinct ?v_4 (f0_2 x5 x9))) (?v_80 (distinct x14 (f0_1 x16))) (?v_22 (distinct x1 (f0_1 x22))) (?v_24 (distinct (f0_2 x26 x27) (f0_2 x20 x10))) (?v_16 (distinct x13 (f0_2 x22 x4))) (?v_92 (distinct ?v_28 ?v_4)) (?v_66 (distinct (f0_2 x14 x16) x29)) (?v_71 (= x18 (f0_2 x0 x8))) (?v_88 (= (f0_1 x3) x10)) (?v_61 (distinct ?v_54 x25)) (?v_81 (= ?v_28 (f0_2 x23 x2))) (?v_21 (f0_1 x6))) (let ((?v_36 (distinct ?v_1 ?v_21)) (?v_77 (distinct ?v_54 (f0_2 x20 x21))) (?v_146 (distinct (f0_2 x13 x17) x25)) (?v_141 (distinct (f0_2 x21 x22) ?v_21)) (?v_3 (not P2)) (?v_46 (not P0)) (?v_32 (not P5)) (?v_13 (not ?v_0))) (let ((?v_118 (not ?v_36)) (?v_37 (not ?v_92)) (?v_58 (not P4)) (?v_103 (not P9)) (?v_11 (not P22)) (?v_44 (not P24)) (?v_9 (not P23)) (?v_64 (not ?v_8)) (?v_55 (not ?v_80)) (?v_49 (not P16)) (?v_138 (not ?v_134)) (?v_40 (not ?v_30)) (?v_91 (not P19)) (?v_133 (not ?v_14)) (?v_43 (not P11)) (?v_104 (not P21)) (?v_95 (not ?v_12)) (?v_52 (not ?v_16)) (?v_23 (not P13)) (?v_29 (not ?v_141)) (?v_68 (not ?v_22)) (?v_25 (not P29)) (?v_111 (not P3)) (?v_100 (not ?v_41)) (?v_96 (not ?v_24)) (?v_76 (not P17)) (?v_125 (not ?v_81)) (?v_85 (not P10)) (?v_131 (not ?v_15)) (?v_123 (not P20)) (?v_99 (not P8)) (?v_108 (not ?v_45)) (?v_136 (not P27)) (?v_60 (not P6)) (?v_102 (not P7)) (?v_122 (not P14)) (?v_84 (not ?v_61)) (?v_115 (not ?v_82)) (?v_90 (not ?v_67)) (?v_78 (not ?v_69)) (?v_74 (not P12)) (?v_101 (not ?v_71)) (?v_135 (not P25)) (?v_127 (not P1)) (?v_83 (not ?v_77)) (?v_152 (not ?v_66)) (?v_105 (not ?v_86)) (?v_120 (not ?v_88)) (?v_113 (not ?v_130)) (?v_148 (not P28)) (?v_132 (not P18)) (?v_119 (not ?v_146)) (?v_121 (not ?v_5)) (?v_139 (or P17 ?v_97)) (?v_137 (not ?v_51)) (?v_144 (not ?v_70)) (?v_149 (not ?v_116)) (?v_151 (not P26)) (?v_158 (not ?v_97)) (?v_39 (< (- (* 6 x25) (* 9 x6)) 9)) (?v_56 (< (+ (* 30 x27) (* 19 x20) (* 35 x26)) 24))) (let ((?v_26 (not ?v_56)) (?v_112 (< (+ (* 26 x22) (* 42 x21) (* 37 x22)) 41))) (let ((?v_156 (not ?v_112)) (?v_109 (not ?v_39)) (?v_126 (<= (- (- (* (- 8) x14) 0) (* 36 x23)) (- 2))) (?v_147 (< (+ (- (* (- 6) x8) ?v_27) (* 37 x28)) (- 25)))) (let ((?v_57 (not ?v_147)) (?v_63 (< (- (+ (* (- 3) x5) (* 12 x28)) (* 14 x23)) 5))) (let ((?v_18 (not ?v_63)) (?v_7 (<= (+ (* (- 39) x6) (* 7 x16) (* 21 x27)) (- 35)))) (let ((?v_154 (not ?v_7)) (?v_47 (< (+ (- (* (- 8) x11) (* 32 x6)) (* 13 x14)) 10))) (let ((?v_19 (not ?v_47)) (?v_10 (<= (+ (- (* (- 5) x19) x2) (* 28 x26)) 4)) (?v_20 (<= (+ (* (- 30) x2) (* 20 x11) (* 42 x13)) 21))) (let ((?v_87 (not ?v_20)) (?v_42 (not ?v_10)) (?v_34 (< (- (+ (* (- 19) x28) (* 31 x1)) (* 15 x7)) (- 4))) (?v_38 (< (- (- (* 6 x29) (* 9 x4)) (* 18 x23)) (- 26)))) (let ((?v_89 (not ?v_38)) (?v_17 (<= (- (+ (* (- 13) x1) (* 30 x7)) (* 7 x4)) (- 16))) (?v_33 (<= (- (+ (* 39 x14) (* 17 x27)) (* 18 x3)) (- 9))) (?v_35 (<= (- (+ (* (- 39) x9) (* 34 x22)) (* 31 x28)) (- 20)))) (let ((?v_107 (not ?v_35)) (?v_31 (<= (+ (- (* (- 12) x2) (* 10 x7)) (* 16 x23)) 29))) (let ((?v_150 (not ?v_31)) (?v_59 (<= (- (+ (* 7 x23) (* 11 x17)) (* 39 x24)) (- 32))) (?v_53 (<= (+ (* (- 13) x4) (* 29 x17)) 8)) (?v_48 (< (- (+ (* 5 x20) ?v_27) (* 40 x2)) (- 34))) (?v_72 (not ?v_33)) (?v_117 (<= (- (* 36 x19) (* 27 x21)) (- 41)))) (let ((?v_93 (not ?v_117)) (?v_65 (not ?v_17)) (?v_62 (< (+ (* 27 x13) (* 40 x3) (* 26 x18)) (- 31))) (?v_50 (= (- (+ (* (- 37) x1) (* 8 x13)) (* 20 x20)) (- 29))) (?v_140 (not ?v_48)) (?v_73 (distinct (+ (* (- 9) x5) (* 41 x27) (* 27 x10)) 9))) (let ((?v_75 (not ?v_73)) (?v_124 (not ?v_53)) (?v_79 (< (- (- (* (- 17) x6) (* 7 x9)) (* 37 x29)) (- 23))) (?v_110 (not ?v_34)) (?v_98 (not ?v_59)) (?v_128 (not ?v_50)) (?v_94 (not ?v_62)) (?v_106 (<= (+ (* (- 31) x25) (* 33 x27) (* 24 x21)) 18))) (let ((?v_114 (not ?v_79)) (?v_153 (< (+ (* (- 42) x1) (* 28 x25)) (- 1)))) (let ((?v_142 (not ?v_153)) (?v_143 (<= (- (- (* (- 23) x19) (* 15 x16)) (* 17 x12)) (- 13)))) (let ((?v_129 (not ?v_143)) (?v_145 (not ?v_106)) (?v_157 (not ?v_126)) (?v_155 (or ?v_135 ?v_18))) (and (and (and (and (and (and (and (and (and (and (and (and (and (and (and (and (and (and (and (and (and (and (and (and (and (and (and (and (and (and (and (and (and (and (and (and (and (and (and (and (and (and (and (and (and (and (and (and (and (and (and (and (and (and (and (and (and (and (and (and (and (and (and (and (and (and (and (and (and (and (and (and (and (and (and (and (and (and (and (and (and (and (and (and (and (and (and (and (and (and (and (and (and (and (and (and (and (and (and (and (and (and (and (and (and (and (and (and (and (and (and (and (and (and (and (and (and (and (and (and (and (and (and (and (and (and (and (and (and (and (and (and (and (and (and (and (and (and (and (and (and (and (and (and (and (and (and (and (and (and (and (and (and (and (and (and (and (and (and (and (and (and (and (and (and (and (and (and (and (and (and (and (and (and (and (and (and (and (and (and (and (and (and (and (and (and (and (and (and (and (and (and (and (and (and (and (and (and (and (and (and (and (and (and (and (and (and (and (and (and (and (and (and (and (and (and (and (and (and (and (and (and (and (and (and (and (and (and (and (and (and (and (and (and (and (and (and (and (and (and (and (and (and (and (and (and (and (and (and (and (and (and (and (and (and (and (and (and (and (and (and (and (and (and (and (and (and (and (and (and (and (and (and (and (and (and (and (and (and (and (and (and (and (and (and (and (and (and (and (and (and (and (and (and (and (and (and (and (and (and (and (and (and (and (and (and (and (and (and (and (and (and (and (and (and (and (and (and (and (and (and (and (and (and (and (and (and (and (and (and (and (and (and (and (and (and (and (and (and (and (and (and (and (and (and (and (and (and (and (and (and (and (and (and (and (and (and (and (and (or (or ?v_3 P3) ?v_46) (or (or P14 ?v_32) ?v_0)) (or (or P12 P3) ?v_69)) (or (or ?v_14 P17) P5)) (or (or ?v_13 ?v_5) ?v_126)) (or (or ?v_15 ?v_57) ?v_71)) (or (or ?v_18 P16) ?v_0)) (or (or ?v_8 P3) ?v_24)) (or (or ?v_154 ?v_118) P23)) (or (or ?v_67 ?v_3) P28)) (or (or ?v_37 P14) ?v_16)) (or (or ?v_5 ?v_19) ?v_51)) (or (or ?v_10 ?v_7) P10)) (or (or ?v_58 ?v_103) ?v_11)) (or (or ?v_87 ?v_44) ?v_39)) (or (or P28 P2) ?v_9)) (or (or ?v_64 P13) ?v_7)) (or (or P7 P5) ?v_55)) (or (or ?v_49 ?v_66) ?v_77)) (or (or ?v_9 ?v_8) ?v_26)) (or (or ?v_42 ?v_11) ?v_12)) (or (or ?v_12 ?v_138) P21)) (or (or ?v_34 ?v_89) ?v_13)) (or (or ?v_40 ?v_91) ?v_133)) (or (or ?v_88 P17) ?v_45)) (or (or ?v_15 ?v_43) ?v_104)) (or (or ?v_17 ?v_16) P21)) (or (or ?v_95 ?v_116) ?v_17)) (or (or ?v_22 ?v_52) ?v_70)) (or (or ?v_18 ?v_19) ?v_14)) (or (or ?v_20 ?v_19) ?v_23)) (or (or ?v_29 P22) ?v_3)) (or (or ?v_68 ?v_33) ?v_23)) (or (or P23 P20) ?v_107)) (or (or ?v_25 ?v_156) ?v_150)) (or (or ?v_111 ?v_59) ?v_24)) (or (or ?v_11 ?v_5) ?v_53)) (or (or ?v_25 ?v_100) ?v_19)) (or (or ?v_9 ?v_96) ?v_26)) (or (or ?v_48 ?v_76) ?v_7)) (or (or ?v_125 ?v_29) ?v_30)) (or (or ?v_31 ?v_32) ?v_85)) (or (or ?v_72 ?v_131) ?v_123)) (or (or ?v_34 ?v_99) ?v_35)) (or (or ?v_93 ?v_16) P20)) (or (or P28 ?v_36) ?v_37)) (or (or P14 ?v_38) ?v_65)) (or (or ?v_39 ?v_40) ?v_31)) (or (or P6 ?v_41) ?v_42)) (or (or ?v_35 ?v_43) P29)) (or (or ?v_62 ?v_44) ?v_108)) (or (or ?v_50 ?v_40) ?v_46)) (or (or ?v_47 ?v_140) P10)) (or (or ?v_49 ?v_75) ?v_136)) (or (or ?v_24 ?v_41) ?v_19)) (or (or ?v_50 ?v_13) ?v_51)) (or (or ?v_52 ?v_60) ?v_124)) (or (or ?v_61 ?v_52) ?v_49)) (or (or ?v_48 ?v_102) ?v_79)) (or (or ?v_55 ?v_17) ?v_56)) (or (or ?v_44 ?v_18) ?v_110)) (or (or P9 ?v_57) P7)) (or (or ?v_58 P13) ?v_98)) (or (or ?v_53 ?v_60) ?v_122)) (or (or ?v_56 ?v_84) ?v_33)) (or (or ?v_62 ?v_24) P24)) (or (or ?v_128 ?v_57) ?v_55)) (or (or ?v_63 P15) ?v_94)) (or (or P24 ?v_40) ?v_64)) (or (or ?v_65 ?v_62) ?v_66)) (or (or P3 ?v_115) ?v_11)) (or (or ?v_90 ?v_68) P2)) (or (or ?v_69 P24) ?v_15)) (or (or P20 ?v_78) ?v_70)) (or (or ?v_74 P6) ?v_101)) (or (or ?v_72 ?v_18) ?v_73)) (or (or ?v_7 ?v_74) ?v_135)) (or (or ?v_57 ?v_39) ?v_75)) (or (or ?v_60 ?v_16) P11)) (or (or ?v_127 ?v_76) ?v_3)) (or (or ?v_83 ?v_26) P5)) (or (or ?v_48 ?v_152) ?v_16)) (or (or ?v_13 ?v_78) ?v_79)) (or (or ?v_8 ?v_80) ?v_57)) (or (or ?v_86 ?v_69) ?v_81)) (or (or ?v_82 P23) ?v_31)) (or (or ?v_83 ?v_34) ?v_36)) (or (or ?v_84 P28) ?v_8)) (or (or ?v_83 ?v_65) ?v_26)) (or (or ?v_85 ?v_105) ?v_51)) (or (or ?v_37 ?v_51) ?v_97)) (or (or P4 ?v_42) ?v_87)) (or (or ?v_26 ?v_5) ?v_120)) (or (or ?v_24 ?v_89) ?v_113)) (or (or P12 ?v_106) P18)) (or (or ?v_48 ?v_48) ?v_39)) (or (or ?v_90 ?v_148) ?v_91)) (or (or ?v_92 ?v_80) P1)) (or (or ?v_84 P24) ?v_93)) (or (or ?v_69 P17) ?v_71)) (or (or ?v_26 ?v_94) P9)) (or (or ?v_70 ?v_5) ?v_74)) (or (or P19 ?v_94) ?v_95)) (or (or ?v_96 ?v_51) ?v_10)) (or (or ?v_97 ?v_64) ?v_70)) (or (or ?v_40 ?v_114) ?v_109)) (or (or ?v_57 P1) P5)) (or (or ?v_47 ?v_98) ?v_99)) (or (or ?v_100 ?v_101) ?v_132)) (or (or ?v_97 ?v_53) P0)) (or (or ?v_102 ?v_103) P11)) (or (or ?v_104 P13) P12)) (or (or ?v_48 ?v_49) ?v_99)) (or (or ?v_17 P27) ?v_78)) (or (or ?v_105 ?v_106) ?v_73)) (or (or ?v_82 P2) ?v_88)) (or (or ?v_119 ?v_107) ?v_59)) (or (or ?v_108 ?v_109) P17)) (or (or ?v_110 ?v_63) P2)) (or (or ?v_34 ?v_111) ?v_32)) (or (or P24 P7) ?v_83)) (or (or ?v_65 ?v_44) ?v_112)) (or (or ?v_113 P8) ?v_114)) (or (or ?v_115 ?v_18) P24)) (or (or ?v_116 P8) ?v_50)) (or (or ?v_142 ?v_63) ?v_107)) (or (or ?v_31 ?v_61) ?v_9)) (or (or ?v_33 ?v_117) ?v_129)) (or (or ?v_103 ?v_68) ?v_118)) (or (or ?v_121 P1) ?v_16)) (or (or ?v_109 ?v_59) ?v_60)) (or (or ?v_119 ?v_77) P23)) (or (or ?v_69 ?v_105) ?v_120)) (or (or ?v_60 ?v_80) ?v_42)) (or (or P13 ?v_77) ?v_47)) (or (or ?v_20 ?v_99) ?v_10)) (or (or ?v_113 P6) ?v_119)) (or (or ?v_18 ?v_41) ?v_121)) (or (or ?v_98 ?v_64) ?v_122)) (or (or ?v_49 ?v_23) ?v_74)) (or ?v_139 ?v_113)) (or (or P16 ?v_109) ?v_108)) (or (or ?v_123 ?v_124) ?v_52)) (or (or ?v_33 ?v_125) ?v_65)) (or (or ?v_103 ?v_126) ?v_34)) (or (or ?v_106 ?v_62) ?v_71)) (or (or ?v_111 ?v_121) ?v_52)) (or (or ?v_97 ?v_11) ?v_113)) (or (or ?v_127 ?v_82) ?v_113)) (or (or ?v_128 ?v_85) ?v_129)) (or (or ?v_45 ?v_35) ?v_23)) (or (or ?v_31 ?v_62) P11)) (or (or ?v_17 ?v_23) ?v_7)) (or (or ?v_137 ?v_126) ?v_130)) (or (or P17 ?v_90) P9)) (or (or ?v_119 P10) ?v_38)) (or (or ?v_69 ?v_34) P3)) (or (or ?v_90 ?v_78) ?v_23)) (or (or ?v_43 ?v_131) ?v_127)) (or (or ?v_39 ?v_109) ?v_64)) (or (or ?v_66 ?v_34) ?v_0)) (or (or P29 ?v_66) ?v_73)) (or (or ?v_29 ?v_30) P5)) (or (or ?v_31 ?v_132) ?v_68)) (or (or ?v_133 ?v_102) P20)) (or (or ?v_16 ?v_31) ?v_60)) (or (or ?v_73 ?v_113) ?v_144)) (or (or ?v_67 ?v_56) ?v_50)) (or (or P11 ?v_134) ?v_124)) (or (or ?v_115 ?v_77) P22)) (or (or ?v_117 ?v_78) ?v_66)) (or (or ?v_135 P23) ?v_95)) (or (or ?v_12 ?v_104) ?v_50)) (or (or ?v_16 ?v_59) ?v_55)) (or (or P15 ?v_60) ?v_78)) (or (or ?v_12 P19) ?v_96)) (or (or ?v_124 ?v_87) ?v_81)) (or (or ?v_136 ?v_52) ?v_137)) (or (or ?v_132 ?v_36) ?v_18)) (or (or ?v_44 P15) ?v_51)) (or (or ?v_78 ?v_53) ?v_48)) (or (or ?v_111 P22) ?v_61)) (or (or ?v_77 P3) ?v_49)) (or (or ?v_121 P3) ?v_117)) (or (or ?v_49 ?v_105) ?v_94)) (or (or ?v_65 P18) P5)) (or (or ?v_138 ?v_8) ?v_129)) (or ?v_139 ?v_12)) (or (or ?v_97 ?v_145) ?v_140)) (or (or ?v_75 P14) ?v_100)) (or (or ?v_115 ?v_108) ?v_135)) (or (or ?v_90 P9) ?v_56)) (or (or ?v_108 ?v_128) ?v_66)) (or (or ?v_41 P15) ?v_87)) (or (or ?v_135 ?v_135) ?v_125)) (or (or ?v_104 ?v_16) ?v_141)) (or (or P19 ?v_133) P11)) (or (or ?v_112 P15) ?v_45)) (or (or ?v_63 ?v_93) ?v_45)) (or (or P21 ?v_79) ?v_142)) (or (or ?v_35 ?v_143) ?v_116)) (or (or ?v_24 P1) ?v_144)) (or (or ?v_120 ?v_145) P3)) (or (or ?v_105 P28) ?v_137)) (or (or ?v_67 ?v_40) ?v_68)) (or (or ?v_104 ?v_36) ?v_26)) (or (or ?v_38 P3) ?v_43)) (or (or ?v_146 ?v_24) ?v_69)) (or (or ?v_147 P19) ?v_72)) (or (or ?v_149 ?v_18) ?v_51)) (or (or P18 ?v_157) ?v_121)) (or (or ?v_126 ?v_124) P26)) (or (or ?v_16 ?v_29) ?v_117)) (or (or ?v_71 ?v_148) ?v_65)) (or (or ?v_18 ?v_9) ?v_82)) (or (or ?v_130 ?v_58) ?v_100)) (or (or ?v_116 ?v_90) ?v_60)) (or (or ?v_128 P18) ?v_103)) (or (or ?v_97 ?v_138) ?v_68)) (or (or ?v_90 ?v_116) ?v_38)) (or (or ?v_64 P11) ?v_0)) (or (or ?v_15 P19) ?v_105)) (or (or ?v_108 ?v_140) P3)) (or (or ?v_83 ?v_106) ?v_93)) (or (or P6 ?v_18) P16)) (or (or ?v_100 ?v_122) ?v_109)) (or (or P21 ?v_148) ?v_15)) (or (or ?v_87 ?v_24) P8)) (or (or ?v_76 ?v_151) ?v_107)) (or (or ?v_149 ?v_123) ?v_134)) (or (or ?v_0 ?v_127) ?v_24)) (or (or P2 ?v_55) ?v_88)) (or (or ?v_30 ?v_106) ?v_131)) (or (or ?v_150 ?v_151) ?v_144)) (or (or ?v_89 ?v_127) ?v_86)) (or (or ?v_115 ?v_152) ?v_125)) (or (or P14 ?v_79) ?v_95)) (or (or ?v_16 ?v_130) ?v_37)) (or (or ?v_5 ?v_107) ?v_45)) (or (or ?v_31 ?v_147) ?v_141)) (or (or ?v_116 ?v_98) ?v_122)) (or (or ?v_104 ?v_102) ?v_115)) (or (or ?v_52 ?v_85) P22)) (or (or P17 ?v_87) ?v_98)) (or (or ?v_52 ?v_99) ?v_145)) (or (or ?v_100 ?v_29) P10)) (or (or ?v_141 ?v_33) P16)) (or (or ?v_73 P22) ?v_23)) (or (or ?v_29 P16) ?v_48)) (or (or ?v_57 ?v_138) ?v_103)) (or (or ?v_31 ?v_112) ?v_88)) (or ?v_155 ?v_16)) (or (or ?v_87 P24) P5)) (or (or ?v_148 ?v_87) P20)) (or (or ?v_130 ?v_81) ?v_153)) (or (or P5 ?v_128) ?v_70)) (or (or ?v_106 P14) ?v_31)) (or (or ?v_103 ?v_123) ?v_120)) (or (or ?v_26 ?v_76) P29)) (or (or ?v_53 ?v_124) ?v_122)) (or (or ?v_154 ?v_146) ?v_97)) (or (or ?v_51 ?v_126) ?v_120)) (or (or ?v_101 ?v_68) P8)) (or (or ?v_85 ?v_32) ?v_56)) (or (or ?v_144 ?v_146) ?v_143)) (or (or ?v_93 ?v_66) ?v_94)) (or (or ?v_34 ?v_74) ?v_67)) (or (or ?v_145 ?v_81) ?v_132)) (or (or ?v_110 ?v_23) ?v_9)) (or (or ?v_42 P25) P7)) (or (or ?v_104 ?v_111) ?v_114)) (or (or ?v_143 ?v_116) P3)) (or ?v_155 ?v_147)) (or (or ?v_158 ?v_36) ?v_91)) (or (or P22 ?v_31) ?v_123)) (or (or ?v_81 ?v_152) ?v_120)) (or (or ?v_11 ?v_148) ?v_85)) (or (or ?v_60 ?v_11) P25)) (or (or P21 P12) ?v_77)) (or (or ?v_127 P25) P11)) (or (or ?v_131 ?v_121) ?v_71)) (or (or ?v_144 ?v_23) ?v_108)) (or (or P16 ?v_87) ?v_127)) (or (or P19 ?v_22) ?v_125)) (or (or ?v_126 ?v_156) ?v_127)) (or (or ?v_129 ?v_149) ?v_150)) (or (or ?v_74 ?v_82) ?v_112)) (or (or ?v_42 ?v_60) ?v_91)) (or (or ?v_93 ?v_135) ?v_157)) (or (or ?v_8 ?v_52) ?v_149)) (or (or ?v_158 ?v_100) P19)) (or (or ?v_30 ?v_86) ?v_71)) (or (or ?v_77 ?v_145) ?v_71)) (or (or P11 P12) ?v_51)) (or (or ?v_83 ?v_88) ?v_97)) (or (or ?v_144 P24) ?v_145)) (or (or ?v_99 ?v_57) ?v_9)) (or (or ?v_147 ?v_10) ?v_65)) (or (or P13 ?v_112) P14)) (or (or ?v_115 ?v_103) ?v_48)) (or (or ?v_132 ?v_23) ?v_116)) (or (or ?v_11 ?v_29) ?v_45)) (or (or ?v_55 ?v_137) P20)) (or (or ?v_14 ?v_98) ?v_52)) (or (or P18 ?v_123) ?v_130)) (or (or ?v_62 ?v_82) ?v_0)) (or (or ?v_7 ?v_128) P15)) (or (or ?v_152 ?v_65) ?v_72)) (or (or ?v_59 ?v_148) P27)) (or (or ?v_64 ?v_104) ?v_129)) (or (or ?v_102 ?v_93) P14)) (or (or ?v_55 ?v_119) ?v_84)) (or (or P6 ?v_68) ?v_112)) (or (or ?v_81 ?v_82) ?v_19)) (or (or ?v_13 ?v_158) ?v_124)) (or (or ?v_107 ?v_64) ?v_141)) (or (or ?v_5 ?v_102) ?v_91)) (or (or ?v_133 ?v_31) ?v_147)) (or (or ?v_122 (not P15)) ?v_74)) (or (or ?v_45 P27) ?v_135)) (or (or ?v_60 ?v_86) ?v_18)) (or (or ?v_109 ?v_156) ?v_19)) (or (or ?v_143 ?v_40) ?v_112)) (or (or ?v_138 ?v_115) ?v_99)) (or (or ?v_30 ?v_100) ?v_127)) (or (or ?v_40 ?v_133) ?v_146)) (or (or ?v_12 ?v_20) ?v_71)) (or (or ?v_64 ?v_151) ?v_153)) (or (or ?v_138 ?v_117) ?v_71)) (or (or ?v_136 P28) P20)) (or (or P27 ?v_65) ?v_56)) (or (or ?v_31 ?v_121) P23)) (or (or ?v_93 P6) ?v_100)) (or (or ?v_93 ?v_117) ?v_147)) (or (or ?v_154 ?v_37) ?v_59)) (or (or ?v_88 ?v_37) ?v_128)) (or (or P4 ?v_96) ?v_7)) (or (or P5 ?v_66) ?v_7)) (or (or ?v_33 P13) ?v_112)) (or (or ?v_127 ?v_64) ?v_77)) (or (or ?v_144 ?v_67) ?v_147)) (or (or ?v_31 ?v_111) P20)) (or (or ?v_60 ?v_87) ?v_123)) (or (or ?v_97 P12) ?v_18)) (or (or ?v_3 ?v_101) ?v_30)) (or (or ?v_53 ?v_37) ?v_51)) (or (or ?v_14 ?v_35) ?v_118)) (or (or ?v_73 ?v_58) ?v_140)) (or (or ?v_71 P3) P5)) (or (or ?v_130 ?v_5) ?v_88)) (or (or ?v_144 ?v_134) ?v_97)) (or (or ?v_93 P5) ?v_122)) (or (or ?v_93 ?v_10) ?v_134)) (or (or ?v_93 P2) ?v_51)) (or (or ?v_71 ?v_136) ?v_74)) (or (or ?v_76 ?v_134) ?v_141)) (or (or ?v_33 ?v_129) ?v_69)) (or (or ?v_40 P25) ?v_116)) (or (or P17 ?v_37) ?v_120)) (or (or P10 ?v_125) P27))))))))))))))))))))))))))
(check-sat)
(exit)
